sat
(
  (define-fun inv ((x!0 Int)) Bool
    (or (and (<= 1 x!0) (not (<= 2 x!0)))
        (and (<= 1 x!0)
             (<= 2 x!0)
             (<= 3 x!0)
             (<= 4 x!0)
             (<= 5 x!0)
             (<= 6 x!0)
             (<= 7 x!0)
             (<= 8 x!0)
             (<= 9 x!0)
             (not (<= 10 x!0)))
        (not (<= 1 x!0))
        (and (<= 1 x!0)
             (<= 2 x!0)
             (<= 3 x!0)
             (<= 4 x!0)
             (<= 5 x!0)
             (<= 6 x!0)
             (<= 7 x!0)
             (<= 8 x!0)
             (not (<= 9 x!0)))
        (and (<= 1 x!0)
             (<= 2 x!0)
             (<= 3 x!0)
             (<= 4 x!0)
             (<= 5 x!0)
             (<= 6 x!0)
             (<= 7 x!0)
             (not (<= 8 x!0)))
        (and (<= 1 x!0)
             (<= 2 x!0)
             (<= 3 x!0)
             (<= 4 x!0)
             (<= 5 x!0)
             (<= 6 x!0)
             (not (<= 7 x!0)))
        (and (<= 1 x!0)
             (<= 2 x!0)
             (<= 3 x!0)
             (<= 4 x!0)
             (<= 5 x!0)
             (not (<= 6 x!0)))
        (and (<= 1 x!0) (<= 2 x!0) (<= 3 x!0) (<= 4 x!0) (not (<= 5 x!0)))
        (and (<= 1 x!0) (<= 2 x!0) (<= 3 x!0) (not (<= 4 x!0)))
        (and (<= 1 x!0) (<= 2 x!0) (not (<= 3 x!0)))
        (and (<= 1 x!0)
             (<= 2 x!0)
             (<= 3 x!0)
             (<= 4 x!0)
             (<= 5 x!0)
             (<= 6 x!0)
             (<= 7 x!0)
             (<= 8 x!0)
             (<= 9 x!0)
             (<= 10 x!0)
             (not (<= 11 x!0)))))
)
